Tried aggregator 2 times.
MIP Presolve eliminated 8 rows and 8 columns.
Aggregator did 4 substitutions.
Reduced MIP has 105097 rows, 140132 columns, and 350324 nonzeros.
Reduced MIP has 35032 binaries, 0 generals, 0 SOSs, and 0 indicators.
Presolve time = 0.32 sec. (224.68 ticks)
Found incumbent of value 3172.675492 after 0.83 sec. (683.64 ticks)
Probing time = 0.16 sec. (6.64 ticks)
Tried aggregator 1 time.
Reduced MIP has 105097 rows, 140132 columns, and 350324 nonzeros.
Reduced MIP has 35032 binaries, 0 generals, 0 SOSs, and 0 indicators.
Presolve time = 0.48 sec. (189.91 ticks)
Probing time = 0.05 sec. (6.24 ticks)
MIP emphasis: balance optimality and feasibility.
MIP search method: dynamic search.
Parallel mode: deterministic, using up to 20 threads.
Root relaxation solution time = 1.50 sec. (1027.40 ticks)

        Nodes                                         Cuts/
   Node  Left     Objective  IInf  Best Integer    Best Bound    ItCnt     Gap

*     0+    0                         3172.6755   1.56777e+07              --- 
*     0+    0                       124807.9816   1.56777e+07              --- 
      0     0  5243670.7513  1594   124807.9816  5243670.7513    15081     --- 
*     0+    0                      5098780.1340  5243670.7513             2.84%
      0     0  5213836.0622   650  5098780.1340    Cuts: 3134    16281    2.26%
*     0+    0                      5102043.9657  5213836.0622             2.19%
      0     0  5211770.4094   560  5102043.9657    Cuts: 1966    17063    2.15%
      0     0  5208948.1876   544  5102043.9657    Cuts: 1450    17804    2.10%
      0     0  5198541.6200   412  5102043.9657    Cuts: 1363    18461    1.89%
      0     0  5194840.4468   333  5102043.9657     Cuts: 574    18808    1.82%
      0     0  5194004.4040   277  5102043.9657     Cuts: 347    18983    1.80%
      0     0  5193695.4869   241  5102043.9657     Cuts: 108    19043    1.80%
*     0+    0                      5103288.7841  5193695.4869             1.77%
      0     0  5193397.8548   227  5103288.7841      Cuts: 84    19076    1.77%
      0     0  5193373.2118   229  5103288.7841      Cuts: 23    19091    1.77%
      0     0  5193303.5089   221  5103288.7841   MIRcuts: 12    19097    1.76%
*     0+    0                      5174677.9499  5193303.5089             0.36%
*     0+    0                      5174777.8405  5193303.5089             0.36%
      0     2  5193303.5089   221  5174777.8405  5193303.5089    19097    0.36%
Elapsed time = 14.64 sec. (10597.09 ticks, tree = 0.01 MB, solutions = 7)
*     3+    3                      5174857.3777  5193296.8108             0.36%
      3     5  5193045.4946   218  5174857.3777  5193296.8108    19115    0.36%
      5     7  5192787.4803   215  5174857.3777  5193296.8108    19125    0.36%
      6     8  5193290.5135   224  5174857.3777  5193295.5950    19130    0.36%
      7     9  5192773.2217   217  5174857.3777  5193295.5950    19136    0.36%
      8    10  5193038.0736   220  5174857.3777  5193295.5950    19149    0.36%
      9    11  5193038.7605   220  5174857.3777  5193295.5950    19155    0.36%
     10    12  5193002.8714   222  5174857.3777  5193295.5950    19162    0.36%
     11    13  5192968.7163   220  5174857.3777  5193295.5950    19165    0.36%
     12    14  5193038.0736   220  5174857.3777  5193295.5950    19167    0.36%
*    20+   20                      5174864.0572  5193294.8785             0.36%
*    21+   21                      5174880.3052  5193294.8785             0.36%
     37    39  5192932.1996   219  5174880.3052  5193294.8785    19246    0.36%
Elapsed time = 16.05 sec. (11567.63 ticks, tree = 0.01 MB, solutions = 11)
*    82+   82                      5174882.7347  5193294.8785             0.36%
*    85+   85                      5174984.6512  5193294.8785             0.35%
*   188+  188                      5175069.4445  5193294.8785             0.35%
    188   190  5192480.7385   215  5175069.4445  5193294.8785    19510    0.35%
    205   207  5192893.3922   219  5175069.4445  5193294.8785    19535    0.35%
    206   208  5192644.1164   216  5175069.4445  5193294.8785    19536    0.35%
    207   209  5192770.2593   217  5175069.4445  5193294.8785    19537    0.35%
    208   210  5192726.2930   217  5175069.4445  5193294.8785    19538    0.35%
    231   233  5193266.7443   220  5175069.4445  5193294.8785    19561    0.35%
    330   332  5193264.6030   220  5175069.4445  5193294.8785    19782    0.35%
    331   333  5192471.7928   215  5175069.4445  5193294.8785    19786    0.35%
    332   334  5192732.3806   217  5175069.4445  5193294.8785    19790    0.35%
    333   335  5192929.6308   217  5175069.4445  5193294.8785    19793    0.35%
Elapsed time = 18.70 sec. (12783.30 ticks, tree = 0.01 MB, solutions = 15)
*   657+  657                      5175127.9845  5193294.8785             0.35%
    697   699  5192193.6684   214  5175127.9845  5193294.8785    20967    0.35%
    701   703  5192151.1381   214  5175127.9845  5193294.8785    20984    0.35%
*   702+  702                      5175149.8661  5193294.8785             0.35%
    702   704  5192625.5909   214  5175149.8661  5193294.8785    20987    0.35%
    707   709  5192198.1866   214  5175149.8661  5193294.8785    21007    0.35%
    713   715  5192370.6352   215  5175149.8661  5193294.8785    21026    0.35%
    717   719  5192444.2620   213  5175149.8661  5193294.8785    21036    0.35%
    720   722  5192653.1048   214  5175149.8661  5193294.8785    21044    0.35%
    721   723  5192401.7317   213  5175149.8661  5193294.8785    21047    0.35%
    722   724  5192622.8626   212  5175149.8661  5193294.8785    21050    0.35%
    723   725  5192621.6534   214  5175149.8661  5193294.8785    21053    0.35%
Elapsed time = 21.55 sec. (13746.83 ticks, tree = 0.01 MB, solutions = 15)
    847   849  5192687.4664   213  5175149.8661  5193294.8785    21398    0.35%
    848   850  5192793.1753   213  5175149.8661  5193294.8785    21400    0.35%
    913   915  5192809.0233   213  5175149.8661  5193294.8785    21587    0.35%
    915   917  5192769.8669   214  5175149.8661  5193294.8785    21590    0.35%
    930   932  5192864.9253   213  5175149.8661  5193294.8785    21612    0.35%
    931   933  5192798.8107   213  5175149.8661  5193294.8785    21614    0.35%
    933   935  5192759.6543   214  5175149.8661  5193294.8785    21617    0.35%
    948   950  5192857.4871   213  5175149.8661  5193294.8785    21644    0.35%
    949   951  5192611.0839   210  5175149.8661  5193294.8785    21645    0.35%
    950   952  5192596.0837   210  5175149.8661  5193294.8785    21646    0.35%
Elapsed time = 24.35 sec. (14710.19 ticks, tree = 4.68 MB, solutions = 20)
*  1293+ 1293                      5175151.8537  5193294.8785             0.35%
*  1294+ 1294                      5175369.9277  5193294.8785             0.35%
   1415  1417  5192787.8456   211  5175369.9277  5193294.8785    22665    0.35%
   1420  1422  5192789.5457   213  5175369.9277  5193294.8785    22672    0.35%
   1431  1433  5192795.1811   213  5175369.9277  5193294.8785    22689    0.35%
   1434  1436  5192565.8196   207  5175369.9277  5193294.8785    22698    0.35%
   1435  1437  5192790.1226   211  5175369.9277  5193294.8785    22700    0.35%
   1440  1442  5192788.0043   211  5175369.9277  5193294.8785    22720    0.35%
   1451  1453  5192793.6397   211  5175369.9277  5193294.8785    22756    0.35%
   1454  1456  5192568.0966   207  5175369.9277  5193294.8785    22762    0.35%
   1455  1457  5192781.9259   211  5175369.9277  5193294.8785    22765    0.35%
   1457  1459  5193073.3495   205  5175369.9277  5193294.8785    22769    0.35%
Elapsed time = 26.89 sec. (15690.00 ticks, tree = 12.50 MB, solutions = 20)
   1711  1713  5191939.3357   201  5175369.9277  5193294.8785    23496    0.35%
   1729  1731  5192992.0651   206  5175369.9277  5193294.8785    23555    0.35%
   1730  1732  5192266.0093   203  5175369.9277  5193294.8785    23558    0.35%
   1731  1733  5192179.4355   203  5175369.9277  5193294.8785    23559    0.35%
   1736  1738  5192210.7684   202  5175369.9277  5193294.8785    23587    0.35%
   1737  1739  5192428.6050   203  5175369.9277  5193294.8785    23593    0.35%
   1739  1741  5192555.7893   205  5175369.9277  5193294.8785    23597    0.35%
   1749  1751  5192761.7597   205  5175369.9277  5193294.8785    23638    0.35%
   1750  1752  5192025.1750   201  5175369.9277  5193294.8785    23644    0.35%
   1751  1753  5191949.1301   202  5175369.9277  5193294.8785    23649    0.35%
Elapsed time = 29.73 sec. (16770.56 ticks, tree = 25.15 MB, solutions = 24)
   2245  2247  5192267.2566   205  5175369.9277  5193294.8785    25154    0.35%
   2247  2249  5191568.5680   202  5175369.9277  5193294.8785    25157    0.35%
   2248  2250  5191773.9618   203  5175369.9277  5193294.8785    25162    0.35%
   2249  2251  5191731.0334   198  5175369.9277  5193294.8785    25164    0.35%
   2251  2253  5191710.0269   201  5175369.9277  5193294.8785    25168    0.35%
   2252  2254  5191952.2020   202  5175369.9277  5193294.8785    25170    0.35%
   2253  2255  5191931.6819   202  5175369.9277  5193294.8785    25172    0.35%
   2258  2260  5191863.8074   204  5175369.9277  5193294.8785    25186    0.35%
   2259  2261  5191785.9754   203  5175369.9277  5193294.8785    25188    0.35%
   2260  2262  5191556.7991   199  5175369.9277  5193294.8785    25189    0.35%
Elapsed time = 32.63 sec. (17737.23 ticks, tree = 38.38 MB, solutions = 24)
   2406  2408  5190831.9877   193  5175369.9277  5193294.8785    25603    0.35%
   2428  2430  5191255.6244   195  5175369.9277  5193294.8785    25664    0.35%
   2431  2433  5191615.6775   196  5175369.9277  5193294.8785    25675    0.35%
   2447  2449  5190638.9995   192  5175369.9277  5193294.8785    25735    0.35%
   2464  2466  5190996.4541   193  5175369.9277  5193294.8785    25785    0.35%
   2577  2579  5190552.3456   195  5175369.9277  5193294.8785    26154    0.35%
   2590  2592  5190859.0773   199  5175369.9277  5193294.8785    26204    0.35%
   2608  2610  5190820.1368   198  5175369.9277  5193294.8785    26252    0.35%
   2647  2649  5191460.7088   201  5175369.9277  5193294.8785    26381    0.35%
   2654  2656  5190995.1571   198  5175369.9277  5193294.8785    26400    0.35%
Elapsed time = 35.53 sec. (18829.22 ticks, tree = 38.38 MB, solutions = 24)
   2918  2920  5190916.6389   197  5175369.9277  5193294.8785    27157    0.35%
   2926  2928  5190496.9608   193  5175369.9277  5193294.8785    27168    0.35%
   2932  2934  5191111.6660   199  5175369.9277  5193294.8785    27177    0.35%
   2934  2936  5191060.6081   199  5175369.9277  5193294.8785    27184    0.35%
   2938  2940  5191045.6194   196  5175369.9277  5193294.8785    27188    0.35%
   2939  2941  5190518.9465   191  5175369.9277  5193294.8785    27189    0.35%
   2940  2942  5190263.3746   195  5175369.9277  5193294.8785    27194    0.35%
   2941  2943  5190773.8680   199  5175369.9277  5193294.8785    27196    0.35%
   2942  2944  5190861.2302   193  5175369.9277  5193294.8785    27197    0.35%
   2943  2945  5190471.9156   191  5175369.9277  5193294.8785    27198    0.35%
Elapsed time = 37.53 sec. (19808.46 ticks, tree = 56.77 MB, solutions = 24)
   3418  3420  5190539.2024   195  5175369.9277  5193294.8785    28349    0.35%
   3419  3421  5190271.6248   191  5175369.9277  5193294.8785    28351    0.35%
   3422  3424  5190613.9084   193  5175369.9277  5193294.8785    28358    0.35%
   3423  3425  5190224.5939   191  5175369.9277  5193294.8785    28360    0.35%
   3426  3428  5190188.5576   193  5175369.9277  5193294.8785    28366    0.35%
   3432  3434  5190803.2628   199  5175369.9277  5193294.8785    28381    0.35%
   3434  3436  5190752.2048   199  5175369.9277  5193294.8785    28386    0.35%
   3438  3440  5190737.2162   196  5175369.9277  5193294.8785    28395    0.35%
   3439  3441  5190206.1454   191  5175369.9277  5193294.8785    28398    0.35%
   4443  4445  5188402.0654   179  5175369.9277  5193294.8785    31327    0.35%
Elapsed time = 48.79 sec. (23634.12 ticks, tree = 84.04 MB, solutions = 24)
*  4480+ 4480                      5175409.4745  5193294.8785             0.35%
*  6504+ 6504                      5175603.4341  5193294.8785             0.34%
*  6504+ 6504                      5175648.5864  5193294.8785             0.34%
*  6504+ 6504                      5175707.6314  5193294.8785             0.34%
*  6504+ 6504                      5175953.9626  5193294.8785             0.34%
   6504  6506  5186207.4315   138  5175953.9626  5193294.8785    37252    0.34%
*  6505+ 6505                      5175979.7108  5193294.8785             0.33%
*  6505+ 6505                      5175996.4673  5193294.8785             0.33%
   6505  6507  5185840.3754   136  5175996.4673  5193294.8785    37256    0.33%
   6506  6508  5186014.5769   130  5175996.4673  5193294.8785    37257    0.33%
   6507  6509  5186038.6318   130  5175996.4673  5193294.8785    37265    0.33%
   6508  6510  5186085.3053   136  5175996.4673  5193294.8785    37269    0.33%
   6509  6511  5185958.6921   138  5175996.4673  5193294.8785    37270    0.33%
   6510  6512  5185956.9407   135  5175996.4673  5193294.8785    37278    0.33%
   6511  6513  5186134.1353   136  5175996.4673  5193294.8785    37286    0.33%
   6512  6514  5185106.7007   124  5175996.4673  5193294.8785    37289    0.33%
   6513  6515  5185316.8322   131  5175996.4673  5193294.8785    37291    0.33%
Elapsed time = 82.82 sec. (38880.53 ticks, tree = 303.11 MB, solutions = 25)
*  6516+ 6516                      5176179.0755  5193294.8785             0.33%
   6522  6524  5186002.4085   128  5176179.0755  5193294.8785    37321    0.33%
*  6524+ 4349                      5176648.6266  5178673.8401             0.04%
*  6524+ 2898                      5177382.1081  5178557.2736             0.02%
*  6524+ 1932                      5178171.3387  5178557.2736             0.01%

Implied bound cuts applied:  182
Flow cuts applied:  79
Mixed integer rounding cuts applied:  5211
Lift and project cuts applied:  56
Gomory fractional cuts applied:  260

Root node processing (before b&c):
  Real time             =   14.04 sec. (10532.29 ticks)
Parallel b&c, 20 threads:
  Real time             =   93.05 sec. (57879.55 ticks)
  Sync time (average)   =    9.35 sec.
  Wait time (average)   =   10.36 sec.
                          ------------
Total (root+branch&cut) =  107.08 sec. (68411.84 ticks)
MKLROOT=/global/software/sl-6.x86_64/modules/langs/intel/2015.6.233/mkl
SLURM_NODELIST=n0046.savio1
SLURM_CHECKPOINT_IMAGE_DIR=/var/slurm/checkpoint
MANPATH=/global/software/sl-6.x86_64/modules/langs/julia/0.5.0/share/man:/global/software/sl-6.x86_64/modules/langs/intel/2015.6.233/man/en_US:/global/software/sl-6.x86_64/modules/langs/gcc/4.8.5/share/man:/usr/share/man
SLURM_JOB_NAME=aggregator
HOSTNAME=n0046.savio1
SLURM_NTASKS_PER_NODE=1
SLURM_TOPOLOGY_ADDR=ib-savio.ib-savio-01.n0046.savio1
SLURMD_NODENAME=n0046.savio1
SLURM_PRIO_PROCESS=0
SLURM_NODE_ALIASES=(null)
TERM=xterm-256color
SHELL=/bin/bash
HISTSIZE=1000
SLURM_JOB_QOS=savio_normal
SSH_CLIENT=10.142.114.66 53400 22
SLURM_TOPOLOGY_ADDR_PATTERN=switch.switch.node
TMPDIR=/tmp
LIBRARY_PATH=/global/software/sl-6.x86_64/modules/langs/julia/0.5.0/lib/julia:/global/software/sl-6.x86_64/modules/langs/intel/2015.6.233/mkl/lib/intel64:/global/software/sl-6.x86_64/modules/langs/gcc/4.8.5/lib64:/global/software/sl-6.x86_64/modules/langs/gcc/4.8.5/lib
GCC_DIR=/global/software/sl-6.x86_64/modules/langs/gcc/4.8.5
FPATH=/global/software/sl-6.x86_64/modules/langs/intel/2015.6.233/mkl/include/fftw:/global/software/sl-6.x86_64/modules/langs/intel/2015.6.233/mkl/include
SSH_TTY=/dev/pts/145
USER=jdlara
SLURM_NNODES=1
LD_LIBRARY_PATH=/global/software/sl-6.x86_64/modules/langs/julia/0.5.0/lib/julia:/global/software/sl-6.x86_64/modules/langs/intel/2015.6.233/mkl/lib/intel64:/global/software/sl-6.x86_64/modules/langs/gcc/4.8.5/lib64:/global/software/sl-6.x86_64/modules/langs/gcc/4.8.5/lib:/global/home/users/jdlara/gurobi652/linux64/lib
LS_COLORS=rs=0:di=38;5;27:ln=38;5;51:mh=44;38;5;15:pi=40;38;5;11:so=38;5;13:do=38;5;5:bd=48;5;232;38;5;11:cd=48;5;232;38;5;3:or=48;5;232;38;5;9:mi=05;48;5;232;38;5;15:su=48;5;196;38;5;15:sg=48;5;11;38;5;16:ca=48;5;196;38;5;226:tw=48;5;10;38;5;16:ow=48;5;10;38;5;21:st=48;5;21;38;5;15:ex=38;5;34:*.tar=38;5;9:*.tgz=38;5;9:*.arj=38;5;9:*.taz=38;5;9:*.lzh=38;5;9:*.lzma=38;5;9:*.tlz=38;5;9:*.txz=38;5;9:*.zip=38;5;9:*.z=38;5;9:*.Z=38;5;9:*.dz=38;5;9:*.gz=38;5;9:*.lz=38;5;9:*.xz=38;5;9:*.bz2=38;5;9:*.tbz=38;5;9:*.tbz2=38;5;9:*.bz=38;5;9:*.tz=38;5;9:*.deb=38;5;9:*.rpm=38;5;9:*.jar=38;5;9:*.rar=38;5;9:*.ace=38;5;9:*.zoo=38;5;9:*.cpio=38;5;9:*.7z=38;5;9:*.rz=38;5;9:*.jpg=38;5;13:*.jpeg=38;5;13:*.gif=38;5;13:*.bmp=38;5;13:*.pbm=38;5;13:*.pgm=38;5;13:*.ppm=38;5;13:*.tga=38;5;13:*.xbm=38;5;13:*.xpm=38;5;13:*.tif=38;5;13:*.tiff=38;5;13:*.png=38;5;13:*.svg=38;5;13:*.svgz=38;5;13:*.mng=38;5;13:*.pcx=38;5;13:*.mov=38;5;13:*.mpg=38;5;13:*.mpeg=38;5;13:*.m2v=38;5;13:*.mkv=38;5;13:*.ogm=38;5;13:*.mp4=38;5;13:*.m4v=38;5;13:*.mp4v=38;5;13:*.vob=38;5;13:*.qt=38;5;13:*.nuv=38;5;13:*.wmv=38;5;13:*.asf=38;5;13:*.rm=38;5;13:*.rmvb=38;5;13:*.flc=38;5;13:*.avi=38;5;13:*.fli=38;5;13:*.flv=38;5;13:*.gl=38;5;13:*.dl=38;5;13:*.xcf=38;5;13:*.xwd=38;5;13:*.yuv=38;5;13:*.cgm=38;5;13:*.emf=38;5;13:*.axv=38;5;13:*.anx=38;5;13:*.ogv=38;5;13:*.ogx=38;5;13:*.aac=38;5;45:*.au=38;5;45:*.flac=38;5;45:*.mid=38;5;45:*.midi=38;5;45:*.mka=38;5;45:*.mp3=38;5;45:*.mpc=38;5;45:*.ogg=38;5;45:*.ra=38;5;45:*.wav=38;5;45:*.axa=38;5;45:*.oga=38;5;45:*.spx=38;5;45:*.xspf=38;5;45:
CPATH=/global/software/sl-6.x86_64/modules/langs/julia/0.5.0/include:/global/software/sl-6.x86_64/modules/langs/intel/2015.6.233/mkl/include/fftw:/global/software/sl-6.x86_64/modules/langs/intel/2015.6.233/mkl/include:/global/software/sl-6.x86_64/modules/langs/gcc/4.8.5/include
SLURM_JOBID=1269735
SLURM_NTASKS=1
NLSPATH=/global/software/sl-6.x86_64/modules/langs/intel/2015.6.233/mkl/lib/intel64/locale/en_US
MAIL=/var/spool/mail/jdlara
PATH=/global/software/sl-6.x86_64/modules/langs/julia/0.5.0/bin:/global/software/sl-6.x86_64/modules/langs/gcc/4.8.5/bin:/usr/local/bin:/bin:/usr/bin:/usr/local/sbin:/usr/sbin:/sbin:/global/home/groups/allhands/bin:/global/home/users/jdlara/gurobi652/linux64/bin:/global/home/users/jdlara/bin:/global/home/users/jdlara/gurobi652/linux64/bin
SLURM_TASKS_PER_NODE=20
SLURM_CPUS_PER_TASK=1
SLURM_JOB_ID=1269735
PWD=/global/home/users/jdlara/Julia_testcodes/aggregator_model
SLURM_JOB_USER=jdlara
_LMFILES_=/global/software/sl-6.x86_64/modfiles/langs/gcc/4.8.5:/global/software/sl-6.x86_64/modfiles/gcc/4.8.5/mkl/2015.6.233:/global/software/sl-6.x86_64/modfiles/langs/julia/0.5.0
CUDA_VISIBLE_DEVICES=NoDevFiles
MODULEPATH=/global/software/sl-6.x86_64/modfiles/tools:/global/software/sl-6.x86_64/modfiles/langs:/global/software/sl-6.x86_64/modfiles/julia/0.5.0:/global/software/sl-6.x86_64/modfiles/gcc/4.8.5
LOADEDMODULES=gcc/4.8.5:mkl/2015.6.233:julia/0.5.0
SLURM_JOB_UID=42745
SLURM_NODEID=0
SLURM_SUBMIT_DIR=/global/home/users/jdlara/Julia_testcodes/aggregator_model
SLURM_NPROCS=1
SLURM_TASK_PID=120653
LM_LICENSE_FILE=28518@lmgr0.hpcs.lbl.gov
SLURM_CPUS_ON_NODE=20
JULIA_DIR=/global/software/sl-6.x86_64/modules/langs/julia/0.5.0
ALLHANDS_BASHRC=1
HISTCONTROL=ignoredups
ENVIRONMENT=BATCH
SLURM_PROCID=0
MKL_DIR=/global/software/sl-6.x86_64/modules/langs/intel/2015.6.233/mkl
SLURM_JOB_NODELIST=n0046.savio1
SHLVL=3
HOME=/global/home/users/jdlara
SLURM_LOCALID=0
SLURM_CLUSTER_NAME=brc
SLURM_JOB_CPUS_PER_NODE=20
SLURM_SUBMIT_HOST=n0011.savio1
SLURM_GTIDS=0
SLURM_JOB_PARTITION=savio
LOGNAME=jdlara
CVS_RSH=ssh
SSH_CONNECTION=10.142.114.66 53400 10.0.0.23 22
SLURM_JOB_ACCOUNT=fc_emac
GPU_DEVICE_ORDINAL=NoDevFiles
MODULESHOME=/usr/Modules
SLURM_JOB_NUM_NODES=1
LESSOPEN=||/usr/bin/lesspipe.sh %s
INFOPATH=/global/software/sl-6.x86_64/modules/langs/gcc/4.8.5/share/info
INCLUDE=/global/software/sl-6.x86_64/modules/langs/julia/0.5.0/include:/global/software/sl-6.x86_64/modules/langs/intel/2015.6.233/mkl/include/fftw:/global/software/sl-6.x86_64/modules/langs/intel/2015.6.233/mkl/include:/global/software/sl-6.x86_64/modules/langs/gcc/4.8.5/include
G_BROKEN_FILENAMES=1
SLURM_MEM_PER_NODE=64000
BASH_FUNC_module()=() {  logger "$HOSTNAME $USER: module $*";
 eval `/usr/Modules/bin/modulecmd bash $*`
}
_=/bin/env
